100 100 100
50
47 68 86
31 93 76
16 84 99
51 83 54
33 66 70
44 94 75
18 83 99
2 31 31
1 92 91
85 77 53
14 68 82
45 45 39
24 93 98
45 98 67
90 6 82
10 70 70
9 87 72
74 83 6
73 68 10
95 66 2
3 91 95
12 86 93
79 39 73
5 84 66
21 66 73
81 97 7
24 66 70
71 78 23
88 86 64
11 79 74
13 90 96
77 77 75
98 27 81
50 75 98
7 72 85
4 70 97
36 80 74
100 73 63
21 79 75
5 66 86
30 78 85
20 48 11
90 50 97
62 70 82
13 22 5
17 85 82
38 75 90
45 73 86
2 78 80
7 95 98
